NAME : 10_3_3_2_(12).dat
COMMENT : Henke, Speranza, Wäscher, 2015
TYPE : MCVRP
DIMENSION : 11
EDGE_WEIGHT_TYPE : DISTANCE_MATRIX
CAPACITY : 1000
VEHICLES : 3
PRODUCT TYPES : 3
COMPARTMENTS : 3
NODE_COORD_SECTION
1 50 50
2 59.51 36.69
3 94.47 17.12
4 56.24 7.13
5 72.87 19.13
6 34.55 18.67
7 11.03 45.37
8 41.4 75.51
9 7.87 15.85
10 90 35.62
11 43.52 4.25
DEMAND_SECTION
1 0 0 0
2 109 72 0
3 229 116 0
4 72 0 3
5 10 83 0
6 77 2 0
7 37 0 133
8 0 83 80
9 27 0 58
10 35 110 0
11 181 0 37
DEPOT_SECTION
1
EOF